 Code  2633
 Dimension, Fixed Cost
   100        3000
 Facility, Client, Transportation Cost
     1        2           0
     1        8           3
     1       14           1
     1       22           1
     1       28           1
     1       33           4
     1       40           0
     1       41           1
     1       63           3
     1       80           4
     2        2           2
     2       14           0
     2       63           2
     2       69           4
     2       70           3
     2       71           0
     2       75           2
     2       88           3
     2       96           2
     2       97           3
     3        1           2
     3        4           3
     3       19           0
     3       20           3
     3       21           1
     3       27           0
     3       47           1
     3       66           4
     3       80           1
     3       82           4
     4       13           4
     4       19           2
     4       30           1
     4       46           0
     4       75           3
     4       79           0
     4       82           3
     4       83           3
     4       84           1
     4       87           2
     5        5           0
     5       14           1
     5       24           1
     5       25           1
     5       33           4
     5       41           2
     5       48           4
     5       86           3
     5       89           2
     5       92           0
     6       10           1
     6       24           2
     6       37           2
     6       46           2
     6       48           0
     6       51           1
     6       56           3
     6       58           2
     6       69           2
     6       78           1
     7       18           2
     7       19           4
     7       25           1
     7       28           3
     7       36           3
     7       40           2
     7       65           2
     7       68           4
     7       79           3
     7       87           3
     8       24           3
     8       36           4
     8       37           1
     8       42           1
     8       57           0
     8       67           1
     8       70           0
     8       80           3
     8       87           1
     8       88           2
     9       17           4
     9       77           2
     9       84           1
     9       87           4
     9       88           4
     9       92           2
     9       97           1
     9       98           2
     9       99           2
     9      100           4
    10        2           1
    10       39           2
    10       44           1
    10       45           0
    10       51           4
    10       60           4
    10       86           0
    10       88           0
    10       91           0
    10       96           4
    11       14           3
    11       23           0
    11       33           3
    11       34           1
    11       61           1
    11       87           3
    11       90           3
    11       94           0
    11       95           0
    11       98           4
    12        5           4
    12        9           3
    12       26           2
    12       33           4
    12       40           1
    12       45           1
    12       53           3
    12       60           0
    12       65           0
    12       76           4
    13        7           2
    13       12           3
    13       23           4
    13       32           2
    13       33           4
    13       64           4
    13       86           3
    13       89           3
    13       99           0
    13      100           3
    14        2           2
    14        3           2
    14        4           1
    14       28           0
    14       38           0
    14       62           0
    14       64           2
    14       75           2
    14       81           1
    14       88           0
    15        4           0
    15       12           3
    15       13           4
    15       14           1
    15       21           2
    15       33           3
    15       44           3
    15       52           1
    15       53           4
    15       54           4
    16       10           4
    16       12           4
    16       13           0
    16       22           1
    16       24           2
    16       37           4
    16       67           2
    16       80           0
    16       85           3
    16       93           0
    17       13           2
    17       20           4
    17       26           3
    17       29           1
    17       30           4
    17       31           4
    17       55           4
    17       56           4
    17       69           1
    17       77           2
    18        9           0
    18       11           2
    18       12           3
    18       18           4
    18       26           2
    18       36           3
    18       38           4
    18       63           4
    18       68           3
    18       76           2
    19        4           0
    19       24           4
    19       29           1
    19       35           0
    19       39           4
    19       53           3
    19       59           3
    19       81           2
    19       85           4
    19       93           1
    20        1           0
    20        8           0
    20       20           4
    20       24           4
    20       34           2
    20       39           1
    20       58           2
    20       59           3
    20       61           3
    20       68           0
    21       38           3
    21       40           4
    21       41           2
    21       43           3
    21       46           3
    21       62           1
    21       65           2
    21       69           4
    21       83           4
    21       97           4
    22       13           3
    22       15           1
    22       28           2
    22       35           4
    22       39           1
    22       45           1
    22       72           2
    22       79           0
    22       85           0
    22       87           3
    23       13           3
    23       23           1
    23       27           4
    23       67           0
    23       71           2
    23       75           1
    23       81           3
    23       83           0
    23       89           3
    23       91           4
    24        7           0
    24        9           1
    24       10           3
    24       47           2
    24       48           1
    24       57           0
    24       62           3
    24       68           0
    24       71           4
    24       75           2
    25        3           1
    25        4           2
    25       30           3
    25       32           4
    25       50           1
    25       51           3
    25       58           3
    25       95           4
    25       96           0
    25       99           0
    26        8           1
    26       11           2
    26       16           3
    26       23           3
    26       25           3
    26       43           4
    26       59           1
    26       67           0
    26       68           1
    26       73           1
    27       19           4
    27       23           0
    27       37           2
    27       52           3
    27       59           2
    27       60           0
    27       68           1
    27       76           3
    27       78           0
    27       79           0
    28        3           3
    28        5           0
    28        7           1
    28        8           1
    28       11           0
    28       12           0
    28       18           4
    28       36           3
    28       42           2
    28       49           0
    29        2           2
    29        6           2
    29       19           3
    29       42           1
    29       44           2
    29       65           4
    29       66           2
    29       69           4
    29       73           0
    29       74           1
    30       21           3
    30       28           2
    30       32           3
    30       34           0
    30       48           2
    30       71           2
    30       87           0
    30       88           4
    30       92           2
    30       94           0
    31        2           3
    31       18           0
    31       33           4
    31       35           2
    31       44           2
    31       48           3
    31       62           3
    31       66           2
    31       78           1
    31       92           3
    32       15           3
    32       21           0
    32       27           3
    32       38           1
    32       39           0
    32       55           4
    32       64           3
    32       76           2
    32       79           3
    32       84           4
    33        1           4
    33        3           0
    33        5           4
    33       29           2
    33       30           4
    33       35           2
    33       36           1
    33       50           2
    33       71           3
    33       73           3
    34        7           1
    34       49           1
    34       70           4
    34       74           0
    34       76           2
    34       78           2
    34       79           1
    34       83           0
    34       86           2
    34       90           0
    35       10           4
    35       17           4
    35       55           3
    35       59           0
    35       84           0
    35       92           3
    35       97           0
    35       98           3
    35       99           4
    35      100           4
    36       17           2
    36       26           0
    36       32           2
    36       46           0
    36       58           3
    36       61           1
    36       66           0
    36       69           4
    36       75           1
    36       80           3
    37       17           3
    37       20           4
    37       25           1
    37       50           2
    37       54           2
    37       57           4
    37       64           3
    37       71           2
    37       79           1
    37       85           0
    38       36           4
    38       46           4
    38       60           0
    38       66           0
    38       73           3
    38       74           4
    38       79           0
    38       90           1
    38       98           1
    38      100           4
    39       24           2
    39       26           3
    39       42           4
    39       50           1
    39       51           0
    39       64           0
    39       74           0
    39       82           0
    39       89           1
    39       94           4
    40       39           0
    40       72           1
    40       74           2
    40       78           4
    40       80           0
    40       92           4
    40       93           0
    40       94           4
    40       97           3
    40       98           2
    41        2           3
    41        4           0
    41        9           2
    41       21           0
    41       22           4
    41       30           0
    41       31           3
    41       46           3
    41       48           4
    41       59           4
    42       11           4
    42       23           3
    42       49           1
    42       62           4
    42       65           0
    42       74           0
    42       75           0
    42       82           3
    42       85           4
    42       91           2
    43        7           0
    43       15           1
    43       18           4
    43       27           4
    43       31           3
    43       47           1
    43       50           0
    43       53           3
    43       58           1
    43       77           4
    44       10           0
    44       31           2
    44       56           4
    44       60           0
    44       64           3
    44       80           2
    44       85           0
    44       86           0
    44       89           1
    44       90           0
    45       23           3
    45       32           3
    45       56           1
    45       63           4
    45       64           0
    45       66           0
    45       69           2
    45       70           2
    45       73           1
    45       87           2
    46        7           4
    46        9           4
    46       27           0
    46       44           4
    46       59           0
    46       60           3
    46       63           3
    46       88           4
    46       90           2
    46       94           3
    47       10           1
    47       39           0
    47       49           1
    47       54           0
    47       72           1
    47       74           1
    47       75           1
    47       79           4
    47       95           3
    47       96           1
    48        8           2
    48       25           3
    48       28           4
    48       29           2
    48       40           2
    48       48           3
    48       50           3
    48       54           3
    48       65           0
    48       70           1
    49       51           3
    49       83           1
    49       88           2
    49       94           4
    49       95           3
    49       96           2
    49       97           2
    49       98           2
    49       99           2
    49      100           1
    50       17           4
    50       20           4
    50       27           3
    50       30           2
    50       36           1
    50       42           4
    50       43           2
    50       47           4
    50       49           3
    50       57           2
    51        4           0
    51        7           1
    51       52           1
    51       53           2
    51       55           1
    51       81           0
    51       89           2
    51       90           3
    51       93           2
    51       94           1
    52        1           0
    52        6           0
    52       16           1
    52       48           2
    52       57           3
    52       60           1
    52       84           1
    52       93           2
    52       99           3
    52      100           4
    53        3           0
    53       11           0
    53       15           0
    53       18           2
    53       47           1
    53       53           0
    53       55           4
    53       59           3
    53       71           1
    53       82           2
    54        6           0
    54       13           0
    54       34           3
    54       38           3
    54       39           1
    54       51           2
    54       56           0
    54       62           2
    54       63           2
    54       77           2
    55       16           1
    55       21           4
    55       28           1
    55       29           4
    55       30           0
    55       32           0
    55       38           0
    55       47           1
    55       53           0
    55       55           1
    56       17           4
    56       40           0
    56       53           4
    56       69           4
    56       73           2
    56       85           1
    56       88           4
    56       91           0
    56       93           3
    56       96           1
    57        6           1
    57       12           0
    57       17           2
    57       33           4
    57       41           4
    57       45           1
    57       50           3
    57       54           1
    57       86           3
    57       89           4
    58        9           4
    58       17           2
    58       42           1
    58       46           3
    58       53           3
    58       57           4
    58       62           1
    58       63           0
    58       67           0
    58       76           0
    59       26           4
    59       28           0
    59       47           3
    59       55           1
    59       60           4
    59       72           0
    59       77           4
    59       80           2
    59       84           2
    59       86           3
    60       10           4
    60       23           2
    60       38           2
    60       49           4
    60       52           0
    60       57           4
    60       59           4
    60       72           4
    60       81           2
    60       85           1
    61        9           2
    61       22           0
    61       28           0
    61       33           2
    61       37           1
    61       42           1
    61       48           1
    61       67           1
    61       70           4
    61       73           3
    62       19           4
    62       23           3
    62       25           3
    62       34           3
    62       36           2
    62       41           1
    62       44           3
    62       45           2
    62       54           3
    62       70           0
    63        5           4
    63       18           3
    63       29           2
    63       31           3
    63       35           4
    63       37           1
    63       38           3
    63       42           1
    63       68           1
    63       81           0
    64       12           1
    64       34           0
    64       60           3
    64       78           4
    64       83           1
    64       93           3
    64       94           1
    64       97           4
    64       98           0
    64       99           0
    65        1           3
    65       13           4
    65       16           4
    65       18           3
    65       40           3
    65       52           3
    65       56           3
    65       76           2
    65       83           3
    65       87           2
    66        1           0
    66        3           0
    66       14           0
    66       21           1
    66       26           4
    66       33           4
    66       40           2
    66       45           2
    66       54           4
    66       61           2
    67       11           4
    67       12           0
    67       38           2
    67       52           2
    67       56           1
    67       64           4
    67       67           3
    67       77           3
    67       83           1
    67       85           1
    68        9           4
    68       14           4
    68       21           0
    68       47           1
    68       49           4
    68       62           4
    68       63           2
    68       71           3
    68       77           1
    68       81           4
    69        3           0
    69       14           0
    69       15           1
    69       20           0
    69       25           4
    69       31           0
    69       46           2
    69       65           0
    69       66           1
    69       91           0
    70        5           4
    70       42           0
    70       56           2
    70       57           3
    70       59           0
    70       61           0
    70       68           0
    70       75           0
    70       76           2
    70       85           1
    71       29           1
    71       31           4
    71       32           4
    71       34           0
    71       56           4
    71       58           2
    71       60           0
    71       63           2
    71       69           2
    71       73           4
    72        4           1
    72       10           4
    72       15           0
    72       22           1
    72       31           0
    72       50           4
    72       54           2
    72       58           1
    72       61           3
    72       67           4
    73        2           0
    73       13           1
    73       32           2
    73       55           2
    73       66           2
    73       74           2
    73       76           3
    73       92           1
    73       95           4
    73       96           0
    74        3           4
    74        8           4
    74       12           2
    74       15           0
    74       16           0
    74       18           3
    74       30           0
    74       37           4
    74       41           0
    74       43           0
    75        2           2
    75        7           2
    75       20           2
    75       24           4
    75       26           0
    75       31           4
    75       35           0
    75       52           2
    75       65           1
    75       67           4
    76        6           2
    76       10           3
    76       47           1
    76       50           2
    76       58           0
    76       62           3
    76       82           4
    76       87           2
    76       89           2
    76       95           1
    77        3           1
    77        8           1
    77       24           3
    77       29           0
    77       44           4
    77       45           1
    77       55           3
    77       58           3
    77       65           4
    77       68           2
    78        1           4
    78       17           3
    78       22           4
    78       23           3
    78       29           3
    78       34           1
    78       41           2
    78       43           1
    78       71           4
    78       74           3
    79        9           1
    79       11           3
    79       15           2
    79       22           1
    79       31           3
    79       37           0
    79       51           2
    79       52           3
    79       72           3
    79       82           2
    80        3           2
    80        5           0
    80        6           0
    80       15           0
    80       44           3
    80       45           0
    80       46           4
    80       49           1
    80       57           2
    80       68           0
    81        5           2
    81       19           2
    81       26           0
    81       35           4
    81       37           4
    81       61           0
    81       69           4
    81       83           0
    81       84           1
    81       91           1
    82       42           4
    82       43           0
    82       51           3
    82       70           2
    82       72           0
    82       73           1
    82       80           1
    82       84           3
    82       90           3
    82       91           2
    83        1           4
    83        6           1
    83       11           4
    83       19           1
    83       21           4
    83       39           2
    83       82           1
    83       88           2
    83       93           2
    83      100           1
    84        4           1
    84        8           2
    84       25           0
    84       36           1
    84       45           2
    84       47           4
    84       51           2
    84       61           4
    84       76           0
    84       81           3
    85       12           0
    85       56           4
    85       67           2
    85       81           2
    85       90           1
    85       91           4
    85       92           2
    85       98           0
    85       99           2
    85      100           2
    86        5           0
    86        9           4
    86       16           0
    86       27           3
    86       30           4
    86       86           1
    86       89           0
    86       93           4
    86       94           3
    86       95           2
    87        1           0
    87        6           1
    87        8           4
    87       34           0
    87       37           3
    87       44           1
    87       46           3
    87       54           3
    87       58           4
    87       62           2
    88        2           3
    88       11           2
    88       14           2
    88       20           2
    88       22           3
    88       27           4
    88       32           4
    88       52           4
    88       63           3
    88       86           2
    89       19           2
    89       34           1
    89       43           4
    89       52           3
    89       77           2
    89       82           4
    89       83           0
    89       84           4
    89       92           1
    89       95           2
    90        1           2
    90       10           4
    90       30           4
    90       39           2
    90       43           0
    90       74           2
    90       90           2
    90       91           3
    90       92           2
    90       97           3
    91        4           3
    91        5           1
    91        7           4
    91       16           2
    91       17           1
    91       40           4
    91       75           1
    91       82           2
    91       93           2
    91       98           3
    92       16           2
    92       22           3
    92       43           3
    92       55           0
    92       64           0
    92       72           2
    92       77           2
    92       78           3
    92       79           0
    92       96           1
    93       11           3
    93       19           0
    93       41           4
    93       49           1
    93       65           1
    93       66           2
    93       70           4
    93       72           1
    93       78           0
    93       81           4
    94        6           4
    94       14           4
    94       25           2
    94       27           0
    94       29           1
    94       38           0
    94       48           4
    94       51           0
    94       57           1
    94       61           0
    95        6           3
    95       35           1
    95       41           3
    95       66           2
    95       73           1
    95       80           0
    95       84           0
    95       86           3
    95       95           2
    95       97           2
    96       16           3
    96       18           1
    96       90           1
    96       94           3
    96       95           0
    96       96           2
    96       97           2
    96       98           4
    96       99           3
    96      100           2
    97        7           3
    97        8           4
    97       15           3
    97       20           0
    97       25           3
    97       26           0
    97       28           4
    97       50           3
    97       53           0
    97       54           3
    98       20           1
    98       24           0
    98       32           0
    98       35           0
    98       40           4
    98       44           0
    98       45           1
    98       61           3
    98       77           1
    98       78           3
    99       13           1
    99       16           2
    99       22           1
    99       27           3
    99       36           1
    99       41           2
    99       43           0
    99       64           4
    99       70           2
    99       72           2
   100       21           1
   100       35           4
   100       49           4
   100       71           1
   100       78           4
   100       89           4
   100       91           2
   100       96           0
   100       99           3
   100      100           0
